p tw 25 75
0 1
0 4
0 2
0 12
0 5
0 20
0 6
0 3
1 6
1 5
1 11
1 22
2 3
2 18
2 23
2 8
2 4
2 24
2 14
3 21
3 4
3 22
3 18
4 5
4 16
4 22
4 7
5 14
5 15
5 17
5 10
5 21
5 24
6 7
6 8
6 20
6 10
6 9
7 10
7 11
7 9
7 18
7 24
8 13
8 16
8 19
9 10
9 14
9 17
9 12
10 11
10 15
10 22
10 12
10 14
10 16
10 20
11 12
11 13
11 18
11 17
11 20
12 14
12 19
13 14
13 20
13 16
13 19
15 17
17 23
18 19
18 20
18 24
19 21
20 21
